28302
0 0 1 0 1 1 1 0 0 0 1 0 0 1 0 1 0 0 0 1 0 0 0 1 1 1 0 1 1 0 
27 19 2 27 2 6 15 27 27 28 4 28 13 13 28 27 13 10 27 27 27 24 5 24 10 27 27 19 4 2 19 19 4 24 27 6 10 13 24 15 25 10 6 4 13 19 13 2 19 10 24 24 24 15 13 6 25 10 27 25 4 2 25 10 13 25 5 19 28 25 25 6 19 10 23 23 10 23 13 24 10 5 19 25 4 13 6 5 27 25 28 6 25 25 2 13 28 6 2 28 28 15 25 25 4 24 4 24 27 13 19 4 27 6 6 13 28 25 28 13 19 25 28 19 4 15 2 28 19 28 28 24 25 10 23 10 13 13 28 10 6 27 28 25 25 5 24 15 27 25 24 28 23 28 13 28 2 15 13 13 13 27 10 24 5 27 5 4 13 15 5 10 19 10 4 2 24 10 4 10 5 15 2 19 6 10 6 23 24 2 2 2 6 4 6 6 25 15 23 19 
